Route #1: 1 21 50 15 121 27 129 143 63 98 74 107 43 1
Route #2 1 55 33 100 94 88 66 104 37 69 17 70 76 1
Route #3 1 16 148 119 123 39 144 42 18 57 68 5 111 1
Route #4 1 36 96 56 116 7 122 136 22 24 32 134 132 1
Route #5 1 4 141 86 145 54 124 99 155 51 106 153 62 1
Route #6 1 3 154 77 137 113 90 82 110 61 120 13 85 1
Route #7 1 114 101 52 91 83 12 78 46 84 6 58 89 1
Route #8 1 60 93 138 8 29 67 95 87 112 133 103 97 1
Route #9 1 14 25 44 48 127 147 79 118 2 126 140 71 1
Route #10 1 81 41 10 109 115 30 59 40 11 135 23 31 1
Route #11 1 73 49 34 75 80 35 19 108 53 139 26 156 1
Route #12 1 152 130 92 64 65 142 157 151 9 150 72 149 1
Route #13 1 20 47 146 128 105 131 125 45 28 117 38 102 1
Cost: 17569